31591.85,41.35,45.53
33321.98,39.2,43.17
29875.85,43.72,48.15
28052.59,46.56,51.28
26890.64,48.57,53.49
29305.64,44.57,49.08
34153.06,38.25,42.12
32274.21,40.47,44.57
32714.94,39.93,43.97
31367.39,41.64,45.86
31651.62,41.27,45.45
32380.07,40.34,44.42
31738.03,41.16,45.32
26486.01,49.32,54.31
29882.78,43.71,48.14
28798.58,45.36,49.95
28279.22,46.19,50.87
31527.0,41.43,45.63
32516.88,40.17,44.24
33013.32,39.57,43.57
